modeles/2_64.lp
minimize
obj: 1 x_1_ + 1 x_2_
subject to
c1_1: 1 t_1,1_ - 1 y_1,1_ <= 0
c2_1: 1 t_1,2_ - 1 y_1,1_ - 1 y_1,2_ <= 0
c3_1: 1 t_1,3_ - 1 y_1,2_ - 1 y_1,3_ <= 0
c4_1: 1 t_1,4_ - 1 y_1,3_ - 1 y_1,4_ <= 0
c5_1: 1 t_1,5_ - 1 y_1,4_ - 1 y_1,5_ <= 0
c6_1: 1 t_1,6_ - 1 y_1,5_ - 1 y_1,6_ <= 0
c7: 1 t_1,7_ - 1 y_1,6_ - 1 y_1,7_ <= 0
c8: 1 t_1,8_ - 1 y_1,7_ - 1 y_1,8_ <= 0
c9: 1 t_1,9_ - 1 y_1,8_ - 1 y_1,9_ <= 0
c10: 1 t_1,10_ - 1 y_1,9_ - 1 y_1,10_ <= 0
c11: 1 t_1,11_ - 1 y_1,10_ - 1 y_1,11_ <= 0
c12: 1 t_1,12_ - 1 y_1,11_ - 1 y_1,12_ <= 0
c13: 1 t_1,13_ - 1 y_1,12_ - 1 y_1,13_ <= 0
c14: 1 t_1,14_ - 1 y_1,13_ - 1 y_1,14_ <= 0
c15: 1 t_1,15_ - 1 y_1,14_ - 1 y_1,15_ <= 0
c16: 1 t_1,16_ - 1 y_1,15_ - 1 y_1,16_ <= 0
c17: 1 t_1,17_ - 1 y_1,16_ - 1 y_1,17_ <= 0
c18: 1 t_1,18_ - 1 y_1,17_ - 1 y_1,18_ <= 0
c19: 1 t_1,19_ - 1 y_1,18_ - 1 y_1,19_ <= 0
c20: 1 t_1,20_ - 1 y_1,19_ - 1 y_1,20_ <= 0
c21: 1 t_1,21_ - 1 y_1,20_ - 1 y_1,21_ <= 0
c22: 1 t_1,22_ - 1 y_1,21_ - 1 y_1,22_ <= 0
c23: 1 t_1,23_ - 1 y_1,22_ - 1 y_1,23_ <= 0
c24: 1 t_1,24_ - 1 y_1,23_ - 1 y_1,24_ <= 0
c25: 1 t_1,25_ - 1 y_1,24_ - 1 y_1,25_ <= 0
c26: 1 t_1,26_ - 1 y_1,25_ - 1 y_1,26_ <= 0
c27: 1 t_1,27_ - 1 y_1,26_ - 1 y_1,27_ <= 0
c28: 1 t_1,28_ - 1 y_1,27_ - 1 y_1,28_ <= 0
c29: 1 t_1,29_ - 1 y_1,28_ - 1 y_1,29_ <= 0
c30: 1 t_1,30_ - 1 y_1,29_ - 1 y_1,30_ <= 0
c31: 1 t_1,31_ - 1 y_1,30_ - 1 y_1,31_ <= 0
c32: 1 t_1,32_ - 1 y_1,31_ - 1 y_1,32_ <= 0
c33: 1 t_1,33_ - 1 y_1,32_ - 1 y_1,33_ <= 0
c34: 1 t_1,34_ - 1 y_1,33_ - 1 y_1,34_ <= 0
c35: 1 t_1,35_ - 1 y_1,34_ - 1 y_1,35_ <= 0
c36: 1 t_1,36_ - 1 y_1,35_ - 1 y_1,36_ <= 0
c37: 1 t_1,37_ - 1 y_1,36_ - 1 y_1,37_ <= 0
c38: 1 t_1,38_ - 1 y_1,37_ - 1 y_1,38_ <= 0
c39: 1 t_1,39_ - 1 y_1,38_ - 1 y_1,39_ <= 0
c40: 1 t_1,40_ - 1 y_1,39_ - 1 y_1,40_ <= 0
c41: 1 t_1,41_ - 1 y_1,40_ - 1 y_1,41_ <= 0
c42: 1 t_1,42_ - 1 y_1,41_ - 1 y_1,42_ <= 0
c43: 1 t_1,43_ - 1 y_1,42_ - 1 y_1,43_ <= 0
c44: 1 t_1,44_ - 1 y_1,43_ - 1 y_1,44_ <= 0
c45: 1 t_1,45_ - 1 y_1,44_ - 1 y_1,45_ <= 0
c46: 1 t_1,46_ - 1 y_1,45_ - 1 y_1,46_ <= 0
c47: 1 t_1,47_ - 1 y_1,46_ - 1 y_1,47_ <= 0
c48: 1 t_1,48_ - 1 y_1,47_ - 1 y_1,48_ <= 0
c49: 1 t_1,49_ - 1 y_1,48_ - 1 y_1,49_ <= 0
c50: 1 t_1,50_ - 1 y_1,49_ - 1 y_1,50_ <= 0
c51: 1 t_1,51_ - 1 y_1,50_ - 1 y_1,51_ <= 0
c52: 1 t_1,52_ - 1 y_1,51_ - 1 y_1,52_ <= 0
c53: 1 t_1,53_ - 1 y_1,52_ - 1 y_1,53_ <= 0
c54: 1 t_1,54_ - 1 y_1,53_ - 1 y_1,54_ <= 0
c55: 1 t_1,55_ - 1 y_1,54_ - 1 y_1,55_ <= 0
c56: 1 t_1,56_ - 1 y_1,55_ - 1 y_1,56_ <= 0
c57: 1 t_1,57_ - 1 y_1,56_ - 1 y_1,57_ <= 0
c58: 1 t_1,58_ - 1 y_1,57_ - 1 y_1,58_ <= 0
c59: 1 t_1,59_ - 1 y_1,58_ - 1 y_1,59_ <= 0
c60: 1 t_1,60_ - 1 y_1,59_ - 1 y_1,60_ <= 0
c61: 1 t_1,61_ - 1 y_1,60_ - 1 y_1,61_ <= 0
c62: 1 t_1,62_ - 1 y_1,61_ - 1 y_1,62_ <= 0
c63: 1 t_1,63_ - 1 y_1,62_ - 1 y_1,63_ <= 0
c64: 1 t_1,64_ - 1 y_1,63_ - 1 y_1,64_ <= 0
c65: 1 t_1,65_ - 1 y_1,64_ <= 0
c66: 1 t_2,1_ - 1 y_2,1_ <= 0
c67: 1 t_2,2_ - 1 y_2,1_ - 1 y_2,2_ <= 0
c68: 1 t_2,3_ - 1 y_2,2_ - 1 y_2,3_ <= 0
c69: 1 t_2,4_ - 1 y_2,3_ - 1 y_2,4_ <= 0
c70: 1 t_2,5_ - 1 y_2,4_ - 1 y_2,5_ <= 0
c71: 1 t_2,6_ - 1 y_2,5_ - 1 y_2,6_ <= 0
c72: 1 t_2,7_ - 1 y_2,6_ - 1 y_2,7_ <= 0
c73: 1 t_2,8_ - 1 y_2,7_ - 1 y_2,8_ <= 0
c74: 1 t_2,9_ - 1 y_2,8_ - 1 y_2,9_ <= 0
c75: 1 t_2,10_ - 1 y_2,9_ - 1 y_2,10_ <= 0
c76: 1 t_2,11_ - 1 y_2,10_ - 1 y_2,11_ <= 0
c77: 1 t_2,12_ - 1 y_2,11_ - 1 y_2,12_ <= 0
c78: 1 t_2,13_ - 1 y_2,12_ - 1 y_2,13_ <= 0
c79: 1 t_2,14_ - 1 y_2,13_ - 1 y_2,14_ <= 0
c80: 1 t_2,15_ - 1 y_2,14_ - 1 y_2,15_ <= 0
c81: 1 t_2,16_ - 1 y_2,15_ - 1 y_2,16_ <= 0
c82: 1 t_2,17_ - 1 y_2,16_ - 1 y_2,17_ <= 0
c83: 1 t_2,18_ - 1 y_2,17_ - 1 y_2,18_ <= 0
c84: 1 t_2,19_ - 1 y_2,18_ - 1 y_2,19_ <= 0
c85: 1 t_2,20_ - 1 y_2,19_ - 1 y_2,20_ <= 0
c86: 1 t_2,21_ - 1 y_2,20_ - 1 y_2,21_ <= 0
c87: 1 t_2,22_ - 1 y_2,21_ - 1 y_2,22_ <= 0
c88: 1 t_2,23_ - 1 y_2,22_ - 1 y_2,23_ <= 0
c89: 1 t_2,24_ - 1 y_2,23_ - 1 y_2,24_ <= 0
c90: 1 t_2,25_ - 1 y_2,24_ - 1 y_2,25_ <= 0
c91: 1 t_2,26_ - 1 y_2,25_ - 1 y_2,26_ <= 0
c92: 1 t_2,27_ - 1 y_2,26_ - 1 y_2,27_ <= 0
c93: 1 t_2,28_ - 1 y_2,27_ - 1 y_2,28_ <= 0
c94: 1 t_2,29_ - 1 y_2,28_ - 1 y_2,29_ <= 0
c95: 1 t_2,30_ - 1 y_2,29_ - 1 y_2,30_ <= 0
c96: 1 t_2,31_ - 1 y_2,30_ - 1 y_2,31_ <= 0
c97: 1 t_2,32_ - 1 y_2,31_ - 1 y_2,32_ <= 0
c98: 1 t_2,33_ - 1 y_2,32_ - 1 y_2,33_ <= 0
c99: 1 t_2,34_ - 1 y_2,33_ - 1 y_2,34_ <= 0
c100: 1 t_2,35_ - 1 y_2,34_ - 1 y_2,35_ <= 0
c101: 1 t_2,36_ - 1 y_2,35_ - 1 y_2,36_ <= 0
c102: 1 t_2,37_ - 1 y_2,36_ - 1 y_2,37_ <= 0
c103: 1 t_2,38_ - 1 y_2,37_ - 1 y_2,38_ <= 0
c104: 1 t_2,39_ - 1 y_2,38_ - 1 y_2,39_ <= 0
c105: 1 t_2,40_ - 1 y_2,39_ - 1 y_2,40_ <= 0
c106: 1 t_2,41_ - 1 y_2,40_ - 1 y_2,41_ <= 0
c107: 1 t_2,42_ - 1 y_2,41_ - 1 y_2,42_ <= 0
c108: 1 t_2,43_ - 1 y_2,42_ - 1 y_2,43_ <= 0
c109: 1 t_2,44_ - 1 y_2,43_ - 1 y_2,44_ <= 0
c110: 1 t_2,45_ - 1 y_2,44_ - 1 y_2,45_ <= 0
c111: 1 t_2,46_ - 1 y_2,45_ - 1 y_2,46_ <= 0
c112: 1 t_2,47_ - 1 y_2,46_ - 1 y_2,47_ <= 0
c113: 1 t_2,48_ - 1 y_2,47_ - 1 y_2,48_ <= 0
c114: 1 t_2,49_ - 1 y_2,48_ - 1 y_2,49_ <= 0
c115: 1 t_2,50_ - 1 y_2,49_ - 1 y_2,50_ <= 0
c116: 1 t_2,51_ - 1 y_2,50_ - 1 y_2,51_ <= 0
c117: 1 t_2,52_ - 1 y_2,51_ - 1 y_2,52_ <= 0
c118: 1 t_2,53_ - 1 y_2,52_ - 1 y_2,53_ <= 0
c119: 1 t_2,54_ - 1 y_2,53_ - 1 y_2,54_ <= 0
c120: 1 t_2,55_ - 1 y_2,54_ - 1 y_2,55_ <= 0
c121: 1 t_2,56_ - 1 y_2,55_ - 1 y_2,56_ <= 0
c122: 1 t_2,57_ - 1 y_2,56_ - 1 y_2,57_ <= 0
c123: 1 t_2,58_ - 1 y_2,57_ - 1 y_2,58_ <= 0
c124: 1 t_2,59_ - 1 y_2,58_ - 1 y_2,59_ <= 0
c125: 1 t_2,60_ - 1 y_2,59_ - 1 y_2,60_ <= 0
c126: 1 t_2,61_ - 1 y_2,60_ - 1 y_2,61_ <= 0
c127: 1 t_2,62_ - 1 y_2,61_ - 1 y_2,62_ <= 0
c128: 1 t_2,63_ - 1 y_2,62_ - 1 y_2,63_ <= 0
c129: 1 t_2,64_ - 1 y_2,63_ - 1 y_2,64_ <= 0
c130: 1 t_2,65_ - 1 y_2,64_ <= 0
c131: 4 t_1,1_ + 4 t_2,1_ + 3.75390625 t_1,2_ + 3.75390625 t_2,2_ + 3.515625 t_1,3_ + 3.515625 t_2,3_ + 3.28515625 t_1,4_ + 3.28515625 t_2,4_ + 3.0625 t_1,5_ + 3.0625 t_2,5_ + 2.84765625 t_1,6_ + 2.84765625 t_2,6_ + 2.640625 t_1,7_ + 2.640625 t_2,7_ + 2.44140625 t_1,8_ + 2.44140625 t_2,8_ + 2.25 t_1,9_ + 2.25 t_2,9_ + 2.06640625 t_1,10_ + 2.06640625 t_2,10_ + 1.890625 t_1,11_ + 1.890625 t_2,11_ + 1.72265625 t_1,12_ + 1.72265625 t_2,12_ + 1.5625 t_1,13_ + 1.5625 t_2,13_ + 1.41015625 t_1,14_ + 1.41015625 t_2,14_ + 1.265625 t_1,15_ + 1.265625 t_2,15_ + 1.12890625 t_1,16_ + 1.12890625 t_2,16_ + 1 t_1,17_ + 1 t_2,17_ + 0.87890625 t_1,18_ + 0.87890625 t_2,18_ + 0.765625 t_1,19_ + 0.765625 t_2,19_ + 0.66015625 t_1,20_ + 0.66015625 t_2,20_ + 0.5625 t_1,21_ + 0.5625 t_2,21_ + 0.47265625 t_1,22_ + 0.47265625 t_2,22_ + 0.390625 t_1,23_ + 0.390625 t_2,23_ + 0.31640625 t_1,24_ + 0.31640625 t_2,24_ + 0.25 t_1,25_ + 0.25 t_2,25_ + 0.19140625 t_1,26_ + 0.19140625 t_2,26_ + 0.140625 t_1,27_ + 0.140625 t_2,27_ + 0.09765625 t_1,28_ + 0.09765625 t_2,28_ + 0.0625 t_1,29_ + 0.0625 t_2,29_ + 0.03515625 t_1,30_ + 0.03515625 t_2,30_ + 0.015625 t_1,31_ + 0.015625 t_2,31_ + 0.00390625 t_1,32_ + 0.00390625 t_2,32_ + 0.00390625 t_1,34_ + 0.00390625 t_2,34_ + 0.015625 t_1,35_ + 0.015625 t_2,35_ + 0.03515625 t_1,36_ + 0.03515625 t_2,36_ + 0.0625 t_1,37_ + 0.0625 t_2,37_ + 0.09765625 t_1,38_ + 0.09765625 t_2,38_ + 0.140625 t_1,39_ + 0.140625 t_2,39_ + 0.19140625 t_1,40_ + 0.19140625 t_2,40_ + 0.25 t_1,41_ + 0.25 t_2,41_ + 0.31640625 t_1,42_ + 0.31640625 t_2,42_ + 0.390625 t_1,43_ + 0.390625 t_2,43_ + 0.47265625 t_1,44_ + 0.47265625 t_2,44_ + 0.5625 t_1,45_ + 0.5625 t_2,45_ + 0.66015625 t_1,46_ + 0.66015625 t_2,46_ + 0.765625 t_1,47_ + 0.765625 t_2,47_ + 0.87890625 t_1,48_ + 0.87890625 t_2,48_ + 1 t_1,49_ + 1 t_2,49_ + 1.12890625 t_1,50_ + 1.12890625 t_2,50_ + 1.265625 t_1,51_ + 1.265625 t_2,51_ + 1.41015625 t_1,52_ + 1.41015625 t_2,52_ + 1.5625 t_1,53_ + 1.5625 t_2,53_ + 1.72265625 t_1,54_ + 1.72265625 t_2,54_ + 1.890625 t_1,55_ + 1.890625 t_2,55_ + 2.06640625 t_1,56_ + 2.06640625 t_2,56_ + 2.25 t_1,57_ + 2.25 t_2,57_ + 2.44140625 t_1,58_ + 2.44140625 t_2,58_ + 2.640625 t_1,59_ + 2.640625 t_2,59_ + 2.84765625 t_1,60_ + 2.84765625 t_2,60_ + 3.0625 t_1,61_ + 3.0625 t_2,61_ + 3.28515625 t_1,62_ + 3.28515625 t_2,62_ + 3.515625 t_1,63_ + 3.515625 t_2,63_ + 3.75390625 t_1,64_ + 3.75390625 t_2,64_ + 4 t_1,65_ + 4 t_2,65_ <= 1
c1: 1 y_1,1_ + 1 y_1,2_ + 1 y_1,3_ + 1 y_1,4_ + 1 y_1,5_ + 1 y_1,6_ + 1 y_1,7_ + 1 y_1,8_ + 1 y_1,9_ + 1 y_1,10_ + 1 y_1,11_ + 1 y_1,12_ + 1 y_1,13_ + 1 y_1,14_ + 1 y_1,15_ + 1 y_1,16_ + 1 y_1,17_ + 1 y_1,18_ + 1 y_1,19_ + 1 y_1,20_ + 1 y_1,21_ + 1 y_1,22_ + 1 y_1,23_ + 1 y_1,24_ + 1 y_1,25_ + 1 y_1,26_ + 1 y_1,27_ + 1 y_1,28_ + 1 y_1,29_ + 1 y_1,30_ + 1 y_1,31_ + 1 y_1,32_ + 1 y_1,33_ + 1 y_1,34_ + 1 y_1,35_ + 1 y_1,36_ + 1 y_1,37_ + 1 y_1,38_ + 1 y_1,39_ + 1 y_1,40_ + 1 y_1,41_ + 1 y_1,42_ + 1 y_1,43_ + 1 y_1,44_ + 1 y_1,45_ + 1 y_1,46_ + 1 y_1,47_ + 1 y_1,48_ + 1 y_1,49_ + 1 y_1,50_ + 1 y_1,51_ + 1 y_1,52_ + 1 y_1,53_ + 1 y_1,54_ + 1 y_1,55_ + 1 y_1,56_ + 1 y_1,57_ + 1 y_1,58_ + 1 y_1,59_ + 1 y_1,60_ + 1 y_1,61_ + 1 y_1,62_ + 1 y_1,63_ + 1 y_1,64_ = 1
c2: 1 t_1,1_ + 1 t_1,2_ + 1 t_1,3_ + 1 t_1,4_ + 1 t_1,5_ + 1 t_1,6_ + 1 t_1,7_ + 1 t_1,8_ + 1 t_1,9_ + 1 t_1,10_ + 1 t_1,11_ + 1 t_1,12_ + 1 t_1,13_ + 1 t_1,14_ + 1 t_1,15_ + 1 t_1,16_ + 1 t_1,17_ + 1 t_1,18_ + 1 t_1,19_ + 1 t_1,20_ + 1 t_1,21_ + 1 t_1,22_ + 1 t_1,23_ + 1 t_1,24_ + 1 t_1,25_ + 1 t_1,26_ + 1 t_1,27_ + 1 t_1,28_ + 1 t_1,29_ + 1 t_1,30_ + 1 t_1,31_ + 1 t_1,32_ + 1 t_1,33_ + 1 t_1,34_ + 1 t_1,35_ + 1 t_1,36_ + 1 t_1,37_ + 1 t_1,38_ + 1 t_1,39_ + 1 t_1,40_ + 1 t_1,41_ + 1 t_1,42_ + 1 t_1,43_ + 1 t_1,44_ + 1 t_1,45_ + 1 t_1,46_ + 1 t_1,47_ + 1 t_1,48_ + 1 t_1,49_ + 1 t_1,50_ + 1 t_1,51_ + 1 t_1,52_ + 1 t_1,53_ + 1 t_1,54_ + 1 t_1,55_ + 1 t_1,56_ + 1 t_1,57_ + 1 t_1,58_ + 1 t_1,59_ + 1 t_1,60_ + 1 t_1,61_ + 1 t_1,62_ + 1 t_1,63_ + 1 t_1,64_ + 1 t_1,65_ = 1
c3: -2 t_1,1_ - 1.9375 t_1,2_ - 1.875 t_1,3_ - 1.8125 t_1,4_ - 1.75 t_1,5_ - 1.6875 t_1,6_ - 1.625 t_1,7_ - 1.5625 t_1,8_ - 1.5 t_1,9_ - 1.4375 t_1,10_ - 1.375 t_1,11_ - 1.3125 t_1,12_ - 1.25 t_1,13_ - 1.1875 t_1,14_ - 1.125 t_1,15_ - 1.0625 t_1,16_ - 1 t_1,17_ - 0.9375 t_1,18_ - 0.875 t_1,19_ - 0.8125 t_1,20_ - 0.75 t_1,21_ - 0.6875 t_1,22_ - 0.625 t_1,23_ - 0.5625 t_1,24_ - 0.5 t_1,25_ - 0.4375 t_1,26_ - 0.375 t_1,27_ - 0.3125 t_1,28_ - 0.25 t_1,29_ - 0.1875 t_1,30_ - 0.125 t_1,31_ - 0.0625 t_1,32_ + 0.0625 t_1,34_ + 0.125 t_1,35_ + 0.1875 t_1,36_ + 0.25 t_1,37_ + 0.3125 t_1,38_ + 0.375 t_1,39_ + 0.4375 t_1,40_ + 0.5 t_1,41_ + 0.5625 t_1,42_ + 0.625 t_1,43_ + 0.6875 t_1,44_ + 0.75 t_1,45_ + 0.8125 t_1,46_ + 0.875 t_1,47_ + 0.9375 t_1,48_ + 1 t_1,49_ + 1.0625 t_1,50_ + 1.125 t_1,51_ + 1.1875 t_1,52_ + 1.25 t_1,53_ + 1.3125 t_1,54_ + 1.375 t_1,55_ + 1.4375 t_1,56_ + 1.5 t_1,57_ + 1.5625 t_1,58_ + 1.625 t_1,59_ + 1.6875 t_1,60_ + 1.75 t_1,61_ + 1.8125 t_1,62_ + 1.875 t_1,63_ + 1.9375 t_1,64_ + 2 t_1,65_ - 1 x_1_ = 0
c4: 1 y_2,1_ + 1 y_2,2_ + 1 y_2,3_ + 1 y_2,4_ + 1 y_2,5_ + 1 y_2,6_ + 1 y_2,7_ + 1 y_2,8_ + 1 y_2,9_ + 1 y_2,10_ + 1 y_2,11_ + 1 y_2,12_ + 1 y_2,13_ + 1 y_2,14_ + 1 y_2,15_ + 1 y_2,16_ + 1 y_2,17_ + 1 y_2,18_ + 1 y_2,19_ + 1 y_2,20_ + 1 y_2,21_ + 1 y_2,22_ + 1 y_2,23_ + 1 y_2,24_ + 1 y_2,25_ + 1 y_2,26_ + 1 y_2,27_ + 1 y_2,28_ + 1 y_2,29_ + 1 y_2,30_ + 1 y_2,31_ + 1 y_2,32_ + 1 y_2,33_ + 1 y_2,34_ + 1 y_2,35_ + 1 y_2,36_ + 1 y_2,37_ + 1 y_2,38_ + 1 y_2,39_ + 1 y_2,40_ + 1 y_2,41_ + 1 y_2,42_ + 1 y_2,43_ + 1 y_2,44_ + 1 y_2,45_ + 1 y_2,46_ + 1 y_2,47_ + 1 y_2,48_ + 1 y_2,49_ + 1 y_2,50_ + 1 y_2,51_ + 1 y_2,52_ + 1 y_2,53_ + 1 y_2,54_ + 1 y_2,55_ + 1 y_2,56_ + 1 y_2,57_ + 1 y_2,58_ + 1 y_2,59_ + 1 y_2,60_ + 1 y_2,61_ + 1 y_2,62_ + 1 y_2,63_ + 1 y_2,64_ = 1
c5: 1 t_2,1_ + 1 t_2,2_ + 1 t_2,3_ + 1 t_2,4_ + 1 t_2,5_ + 1 t_2,6_ + 1 t_2,7_ + 1 t_2,8_ + 1 t_2,9_ + 1 t_2,10_ + 1 t_2,11_ + 1 t_2,12_ + 1 t_2,13_ + 1 t_2,14_ + 1 t_2,15_ + 1 t_2,16_ + 1 t_2,17_ + 1 t_2,18_ + 1 t_2,19_ + 1 t_2,20_ + 1 t_2,21_ + 1 t_2,22_ + 1 t_2,23_ + 1 t_2,24_ + 1 t_2,25_ + 1 t_2,26_ + 1 t_2,27_ + 1 t_2,28_ + 1 t_2,29_ + 1 t_2,30_ + 1 t_2,31_ + 1 t_2,32_ + 1 t_2,33_ + 1 t_2,34_ + 1 t_2,35_ + 1 t_2,36_ + 1 t_2,37_ + 1 t_2,38_ + 1 t_2,39_ + 1 t_2,40_ + 1 t_2,41_ + 1 t_2,42_ + 1 t_2,43_ + 1 t_2,44_ + 1 t_2,45_ + 1 t_2,46_ + 1 t_2,47_ + 1 t_2,48_ + 1 t_2,49_ + 1 t_2,50_ + 1 t_2,51_ + 1 t_2,52_ + 1 t_2,53_ + 1 t_2,54_ + 1 t_2,55_ + 1 t_2,56_ + 1 t_2,57_ + 1 t_2,58_ + 1 t_2,59_ + 1 t_2,60_ + 1 t_2,61_ + 1 t_2,62_ + 1 t_2,63_ + 1 t_2,64_ + 1 t_2,65_ = 1
c6: -2 t_2,1_ - 1.9375 t_2,2_ - 1.875 t_2,3_ - 1.8125 t_2,4_ - 1.75 t_2,5_ - 1.6875 t_2,6_ - 1.625 t_2,7_ - 1.5625 t_2,8_ - 1.5 t_2,9_ - 1.4375 t_2,10_ - 1.375 t_2,11_ - 1.3125 t_2,12_ - 1.25 t_2,13_ - 1.1875 t_2,14_ - 1.125 t_2,15_ - 1.0625 t_2,16_ - 1 t_2,17_ - 0.9375 t_2,18_ - 0.875 t_2,19_ - 0.8125 t_2,20_ - 0.75 t_2,21_ - 0.6875 t_2,22_ - 0.625 t_2,23_ - 0.5625 t_2,24_ - 0.5 t_2,25_ - 0.4375 t_2,26_ - 0.375 t_2,27_ - 0.3125 t_2,28_ - 0.25 t_2,29_ - 0.1875 t_2,30_ - 0.125 t_2,31_ - 0.0625 t_2,32_ + 0.0625 t_2,34_ + 0.125 t_2,35_ + 0.1875 t_2,36_ + 0.25 t_2,37_ + 0.3125 t_2,38_ + 0.375 t_2,39_ + 0.4375 t_2,40_ + 0.5 t_2,41_ + 0.5625 t_2,42_ + 0.625 t_2,43_ + 0.6875 t_2,44_ + 0.75 t_2,45_ + 0.8125 t_2,46_ + 0.875 t_2,47_ + 0.9375 t_2,48_ + 1 t_2,49_ + 1.0625 t_2,50_ + 1.125 t_2,51_ + 1.1875 t_2,52_ + 1.25 t_2,53_ + 1.3125 t_2,54_ + 1.375 t_2,55_ + 1.4375 t_2,56_ + 1.5 t_2,57_ + 1.5625 t_2,58_ + 1.625 t_2,59_ + 1.6875 t_2,60_ + 1.75 t_2,61_ + 1.8125 t_2,62_ + 1.875 t_2,63_ + 1.9375 t_2,64_ + 2 t_2,65_ - 1 x_2_ = 0
Bounds
x_1_ <= 2
x_2_ <= 2
t_1,1_ >= 0
t_2,1_ >= 0
t_1,2_ >= 0
t_2,2_ >= 0
t_1,3_ >= 0
t_2,3_ >= 0
t_1,4_ >= 0
t_2,4_ >= 0
t_1,5_ >= 0
t_2,5_ >= 0
t_1,6_ >= 0
t_2,6_ >= 0
t_1,7_ >= 0
t_2,7_ >= 0
t_1,8_ >= 0
t_2,8_ >= 0
t_1,9_ >= 0
t_2,9_ >= 0
t_1,10_ >= 0
t_2,10_ >= 0
t_1,11_ >= 0
t_2,11_ >= 0
t_1,12_ >= 0
t_2,12_ >= 0
t_1,13_ >= 0
t_2,13_ >= 0
t_1,14_ >= 0
t_2,14_ >= 0
t_1,15_ >= 0
t_2,15_ >= 0
t_1,16_ >= 0
t_2,16_ >= 0
t_1,17_ >= 0
t_2,17_ >= 0
t_1,18_ >= 0
t_2,18_ >= 0
t_1,19_ >= 0
t_2,19_ >= 0
t_1,20_ >= 0
t_2,20_ >= 0
t_1,21_ >= 0
t_2,21_ >= 0
t_1,22_ >= 0
t_2,22_ >= 0
t_1,23_ >= 0
t_2,23_ >= 0
t_1,24_ >= 0
t_2,24_ >= 0
t_1,25_ >= 0
t_2,25_ >= 0
t_1,26_ >= 0
t_2,26_ >= 0
t_1,27_ >= 0
t_2,27_ >= 0
t_1,28_ >= 0
t_2,28_ >= 0
t_1,29_ >= 0
t_2,29_ >= 0
t_1,30_ >= 0
t_2,30_ >= 0
t_1,31_ >= 0
t_2,31_ >= 0
t_1,32_ >= 0
t_2,32_ >= 0
t_1,33_ >= 0
t_2,33_ >= 0
t_1,34_ >= 0
t_2,34_ >= 0
t_1,35_ >= 0
t_2,35_ >= 0
t_1,36_ >= 0
t_2,36_ >= 0
t_1,37_ >= 0
t_2,37_ >= 0
t_1,38_ >= 0
t_2,38_ >= 0
t_1,39_ >= 0
t_2,39_ >= 0
t_1,40_ >= 0
t_2,40_ >= 0
t_1,41_ >= 0
t_2,41_ >= 0
t_1,42_ >= 0
t_2,42_ >= 0
t_1,43_ >= 0
t_2,43_ >= 0
t_1,44_ >= 0
t_2,44_ >= 0
t_1,45_ >= 0
t_2,45_ >= 0
t_1,46_ >= 0
t_2,46_ >= 0
t_1,47_ >= 0
t_2,47_ >= 0
t_1,48_ >= 0
t_2,48_ >= 0
t_1,49_ >= 0
t_2,49_ >= 0
t_1,50_ >= 0
t_2,50_ >= 0
t_1,51_ >= 0
t_2,51_ >= 0
t_1,52_ >= 0
t_2,52_ >= 0
t_1,53_ >= 0
t_2,53_ >= 0
t_1,54_ >= 0
t_2,54_ >= 0
t_1,55_ >= 0
t_2,55_ >= 0
t_1,56_ >= 0
t_2,56_ >= 0
t_1,57_ >= 0
t_2,57_ >= 0
t_1,58_ >= 0
t_2,58_ >= 0
t_1,59_ >= 0
t_2,59_ >= 0
t_1,60_ >= 0
t_2,60_ >= 0
t_1,61_ >= 0
t_2,61_ >= 0
t_1,62_ >= 0
t_2,62_ >= 0
t_1,63_ >= 0
t_2,63_ >= 0
t_1,64_ >= 0
t_2,64_ >= 0
t_1,65_ >= 0
t_2,65_ >= 0
x_1_ >= -2
x_2_ >= -2
Binary
y_1,1_
y_2,1_
y_1,2_
y_2,2_
y_1,3_
y_2,3_
y_1,4_
y_2,4_
y_1,5_
y_2,5_
y_1,6_
y_2,6_
y_1,7_
y_2,7_
y_1,8_
y_2,8_
y_1,9_
y_2,9_
y_1,10_
y_2,10_
y_1,11_
y_2,11_
y_1,12_
y_2,12_
y_1,13_
y_2,13_
y_1,14_
y_2,14_
y_1,15_
y_2,15_
y_1,16_
y_2,16_
y_1,17_
y_2,17_
y_1,18_
y_2,18_
y_1,19_
y_2,19_
y_1,20_
y_2,20_
y_1,21_
y_2,21_
y_1,22_
y_2,22_
y_1,23_
y_2,23_
y_1,24_
y_2,24_
y_1,25_
y_2,25_
y_1,26_
y_2,26_
y_1,27_
y_2,27_
y_1,28_
y_2,28_
y_1,29_
y_2,29_
y_1,30_
y_2,30_
y_1,31_
y_2,31_
y_1,32_
y_2,32_
y_1,33_
y_2,33_
y_1,34_
y_2,34_
y_1,35_
y_2,35_
y_1,36_
y_2,36_
y_1,37_
y_2,37_
y_1,38_
y_2,38_
y_1,39_
y_2,39_
y_1,40_
y_2,40_
y_1,41_
y_2,41_
y_1,42_
y_2,42_
y_1,43_
y_2,43_
y_1,44_
y_2,44_
y_1,45_
y_2,45_
y_1,46_
y_2,46_
y_1,47_
y_2,47_
y_1,48_
y_2,48_
y_1,49_
y_2,49_
y_1,50_
y_2,50_
y_1,51_
y_2,51_
y_1,52_
y_2,52_
y_1,53_
y_2,53_
y_1,54_
y_2,54_
y_1,55_
y_2,55_
y_1,56_
y_2,56_
y_1,57_
y_2,57_
y_1,58_
y_2,58_
y_1,59_
y_2,59_
y_1,60_
y_2,60_
y_1,61_
y_2,61_
y_1,62_
y_2,62_
y_1,63_
y_2,63_
y_1,64_
y_2,64_
End
