res_glpk/log/2_64.log
GLPSOL--GLPK LP/MIP Solver 5.0
Parameter(s) specified in the command line:
 --lp ../modeles/2_64.lp --log 2_64.log
Reading problem data from '../modeles/2_64.lp'...
137 rows, 260 columns, 902 non-zeros
128 integer variables, all of which are binary
405 lines were read
GLPK Integer Optimizer 5.0
137 rows, 260 columns, 902 non-zeros
128 integer variables, all of which are binary
Preprocessing...
124 constraint coefficient(s) were reduced
137 rows, 258 columns, 900 non-zeros
128 integer variables, all of which are binary
Scaling...
 A: min|aij| =  3.906e-03  max|aij| =  4.000e+00  ratio =  1.024e+03
GM: min|aij| =  1.768e-01  max|aij| =  5.657e+00  ratio =  3.200e+01
EQ: min|aij| =  3.125e-02  max|aij| =  1.000e+00  ratio =  3.200e+01
2N: min|aij| =  3.125e-02  max|aij| =  1.638e+00  ratio =  5.243e+01
Constructing initial basis...
Size of triangular part is 137
Solving LP relaxation...
GLPK Simplex Optimizer 5.0
137 rows, 258 columns, 900 non-zeros
      0: obj =   4.000000000e+00 inf =   9.500e+00 (5)
     21: obj =   3.269701419e-01 inf =   0.000e+00 (0)
*    74: obj =  -1.413043478e+00 inf =   3.794e-16 (0)
OPTIMAL LP SOLUTION FOUND
Integer optimization begins...
Long-step dual simplex will be used
+    74: mip =     not found yet >=              -inf        (1; 0)
+   151: >>>>>  -1.413043478e+00 >=  -1.413043478e+00   0.0% (72; 1)
+   151: mip =  -1.413043478e+00 >=     tree is empty   0.0% (0; 145)
INTEGER OPTIMAL SOLUTION FOUND
Time used:   0.0 secs
Memory used: 0.4 Mb (438906 bytes)
